# Random Circle Problem
param d := 0.05; 
param n := 10; 
param radius := 2.00; 
param v0 := 
1 5.84
2 4.93
3 5.83
4 5.83
5 5.54
6 5.46
7 5.10
8 5.58
9 5.93
10 5.20
;
param cap := 
1 3.38012
2 3.96056
3 4.05685
4 5.29444
5 5.15614
6 0.27295
7 0.92853
8 1.64385
9 1.90173
10 2.86419
;
param x0 := 
1 2.00
2 1.62
3 0.62
4 -0.62
5 -1.62
6 -2.00
7 -1.62
8 -0.62
9 0.62
10 1.62
;
param y0 := 
1 -0.00
2 1.18
3 1.90
4 1.90
5 1.18
6 0.00
7 -1.18
8 -1.90
9 -1.90
10 -1.18
;
